
  22    4
  10   10   10   10

   0   0   0   0   0   5 2 4 5 8 21 
   1  10  10  10  10   5 11 10 9 6 3 
   1  10  10  10  10   5 19 17 16 13 7 
   4  10  10  10  10   5 18 17 15 10 6 
   8  10  10  10  10   6 20 17 16 14 13 12 
   8  10  10  10  10   4 16 14 13 12 
   7  10  10  10  10   4 18 15 14 12 
   7  10  10  10  10   4 17 16 13 12 
   9  10  10  10  10   3 15 13 12 
   1  10  10  10  10   2 13 12 
   9  10  10  10  10   2 15 14 
   3  10  10  10  10   1 22
  10  10  10  10  10   1 22
   3  10  10  10  10   1 22
   4  10  10  10  10   1 22
   4  10  10  10  10   1 22
   4  10  10  10  10   1 22
   3  10  10  10  10   1 22
   8  10  10  10  10   1 22
   7  10  10  10  10   1 22
   9  10  10  10  10   1 22
   0   0   0   0   0   0 
